Cu8 Se4
1.0
       29.0100898743         0.0000000000         0.0000000000
        0.0000000000        29.0100898743         0.0000000000
        0.0000000000         0.0000000000        11.6040363312
   Cu   Se
  390  200
Direct
     0.050000001         0.050000001         0.375000000
     0.050000001         0.050000001         0.875000000
     0.050000001         0.250000000         0.375000000
     0.050000001         0.250000000         0.875000000
     0.050000001         0.449999988         0.375000000
     0.050000001         0.449999988         0.875000000
     0.050000001         0.649999976         0.375000000
     0.050000001         0.649999976         0.875000000
     0.050000001         0.850000024         0.375000000
     0.050000001         0.850000024         0.875000000
     0.250000000         0.050000001         0.375000000
     0.250000000         0.050000001         0.875000000
     0.250000000         0.250000000         0.375000000
     0.250000000         0.250000000         0.875000000
     0.250000000         0.449999988         0.375000000
     0.250000000         0.449999988         0.875000000
     0.250000000         0.649999976         0.375000000
     0.250000000         0.649999976         0.875000000
     0.250000000         0.850000024         0.375000000
     0.250000000         0.850000024         0.875000000
     0.449999988         0.050000001         0.375000000
     0.449999988         0.050000001         0.875000000
     0.449999988         0.250000000         0.375000000
     0.449999988         0.250000000         0.875000000
     0.449999988         0.449999988         0.375000000
     0.449999988         0.449999988         0.875000000
     0.449999988         0.649999976         0.375000000
     0.449999988         0.649999976         0.875000000
     0.449999988         0.850000024         0.375000000
     0.449999988         0.850000024         0.875000000
     0.649999976         0.050000001         0.375000000
     0.649999976         0.050000001         0.875000000
     0.649999976         0.250000000         0.375000000
     0.649999976         0.250000000         0.875000000
     0.649999976         0.449999988         0.375000000
     0.649999976         0.449999988         0.875000000
     0.649999976         0.649999976         0.375000000
     0.649999976         0.649999976         0.875000000
     0.649999976         0.850000024         0.375000000
     0.649999976         0.850000024         0.875000000
     0.850000024         0.050000001         0.375000000
     0.850000024         0.050000001         0.875000000
     0.850000024         0.250000000         0.375000000
     0.850000024         0.250000000         0.875000000
     0.850000024         0.449999988         0.375000000
     0.850000024         0.449999988         0.875000000
     0.850000024         0.649999976         0.375000000
     0.850000024         0.649999976         0.875000000
     0.850000024         0.850000024         0.375000000
     0.850000024         0.850000024         0.875000000
     0.050000001         0.150000006         0.375000000
     0.050000001         0.150000006         0.875000000
     0.050000001         0.349999994         0.375000000
     0.050000001         0.349999994         0.875000000
     0.050000001         0.550000012         0.375000000
     0.050000001         0.550000012         0.875000000
     0.050000001         0.750000000         0.375000000
     0.050000001         0.750000000         0.875000000
     0.050000001         0.949999988         0.375000000
     0.050000001         0.949999988         0.875000000
     0.250000000         0.150000006         0.375000000
     0.250000000         0.150000006         0.875000000
     0.250000000         0.349999994         0.375000000
     0.250000000         0.349999994         0.875000000
     0.250000000         0.550000012         0.375000000
     0.250000000         0.750000000         0.375000000
     0.250000000         0.750000000         0.875000000
     0.250000000         0.949999988         0.375000000
     0.250000000         0.949999988         0.875000000
     0.449999988         0.150000006         0.375000000
     0.449999988         0.150000006         0.875000000
     0.449999988         0.349999994         0.375000000
     0.449999988         0.349999994         0.875000000
     0.449999988         0.550000012         0.375000000
     0.449999988         0.550000012         0.875000000
     0.449999988         0.750000000         0.375000000
     0.449999988         0.750000000         0.875000000
     0.449999988         0.949999988         0.375000000
     0.449999988         0.949999988         0.875000000
     0.649999976         0.150000006         0.375000000
     0.649999976         0.150000006         0.875000000
     0.649999976         0.349999994         0.375000000
     0.649999976         0.349999994         0.875000000
     0.649999976         0.550000012         0.375000000
     0.649999976         0.550000012         0.875000000
     0.649999976         0.750000000         0.375000000
     0.649999976         0.750000000         0.875000000
     0.649999976         0.949999988         0.375000000
     0.649999976         0.949999988         0.875000000
     0.850000024         0.150000006         0.375000000
     0.850000024         0.150000006         0.875000000
     0.850000024         0.349999994         0.375000000
     0.850000024         0.349999994         0.875000000
     0.850000024         0.550000012         0.375000000
     0.850000024         0.550000012         0.875000000
     0.850000024         0.750000000         0.375000000
     0.850000024         0.750000000         0.875000000
     0.850000024         0.949999988         0.875000000
     0.050000001         0.150000006         0.125000000
     0.050000001         0.150000006         0.625000000
     0.050000001         0.349999994         0.125000000
     0.050000001         0.349999994         0.625000000
     0.050000001         0.550000012         0.125000000
     0.050000001         0.550000012         0.625000000
     0.050000001         0.750000000         0.125000000
     0.050000001         0.750000000         0.625000000
     0.050000001         0.949999988         0.125000000
     0.050000001         0.949999988         0.625000000
     0.250000000         0.150000006         0.125000000
     0.250000000         0.150000006         0.625000000
     0.250000000         0.349999994         0.625000000
     0.250000000         0.550000012         0.125000000
     0.250000000         0.750000000         0.125000000
     0.250000000         0.750000000         0.625000000
     0.250000000         0.949999988         0.125000000
     0.250000000         0.949999988         0.625000000
     0.449999988         0.150000006         0.125000000
     0.449999988         0.150000006         0.625000000
     0.449999988         0.349999994         0.125000000
     0.449999988         0.349999994         0.625000000
     0.449999988         0.550000012         0.625000000
     0.449999988         0.750000000         0.125000000
     0.449999988         0.750000000         0.625000000
     0.449999988         0.949999988         0.125000000
     0.449999988         0.949999988         0.625000000
     0.649999976         0.150000006         0.125000000
     0.649999976         0.150000006         0.625000000
     0.649999976         0.349999994         0.125000000
     0.649999976         0.550000012         0.125000000
     0.649999976         0.550000012         0.625000000
     0.649999976         0.750000000         0.125000000
     0.649999976         0.750000000         0.625000000
     0.649999976         0.949999988         0.125000000
     0.649999976         0.949999988         0.625000000
     0.850000024         0.150000006         0.125000000
     0.850000024         0.150000006         0.625000000
     0.850000024         0.349999994         0.125000000
     0.850000024         0.349999994         0.625000000
     0.850000024         0.550000012         0.125000000
     0.850000024         0.550000012         0.625000000
     0.850000024         0.750000000         0.125000000
     0.850000024         0.750000000         0.625000000
     0.850000024         0.949999988         0.125000000
     0.850000024         0.949999988         0.625000000
     0.050000001         0.050000001         0.125000000
     0.050000001         0.050000001         0.625000000
     0.050000001         0.250000000         0.125000000
     0.050000001         0.250000000         0.625000000
     0.050000001         0.449999988         0.125000000
     0.050000001         0.449999988         0.625000000
     0.050000001         0.649999976         0.125000000
     0.050000001         0.649999976         0.625000000
     0.050000001         0.850000024         0.125000000
     0.050000001         0.850000024         0.625000000
     0.250000000         0.050000001         0.125000000
     0.250000000         0.050000001         0.625000000
     0.250000000         0.250000000         0.125000000
     0.250000000         0.250000000         0.625000000
     0.250000000         0.449999988         0.125000000
     0.250000000         0.449999988         0.625000000
     0.250000000         0.649999976         0.125000000
     0.250000000         0.649999976         0.625000000
     0.250000000         0.850000024         0.125000000
     0.250000000         0.850000024         0.625000000
     0.449999988         0.050000001         0.125000000
     0.449999988         0.050000001         0.625000000
     0.449999988         0.250000000         0.125000000
     0.449999988         0.250000000         0.625000000
     0.449999988         0.449999988         0.125000000
     0.449999988         0.449999988         0.625000000
     0.449999988         0.649999976         0.125000000
     0.449999988         0.649999976         0.625000000
     0.449999988         0.850000024         0.125000000
     0.449999988         0.850000024         0.625000000
     0.649999976         0.050000001         0.125000000
     0.649999976         0.050000001         0.625000000
     0.649999976         0.250000000         0.125000000
     0.649999976         0.250000000         0.625000000
     0.649999976         0.449999988         0.125000000
     0.649999976         0.449999988         0.625000000
     0.649999976         0.649999976         0.125000000
     0.649999976         0.649999976         0.625000000
     0.649999976         0.850000024         0.125000000
     0.649999976         0.850000024         0.625000000
     0.850000024         0.050000001         0.125000000
     0.850000024         0.050000001         0.625000000
     0.850000024         0.250000000         0.125000000
     0.850000024         0.250000000         0.625000000
     0.850000024         0.449999988         0.125000000
     0.850000024         0.449999988         0.625000000
     0.850000024         0.649999976         0.125000000
     0.850000024         0.649999976         0.625000000
     0.850000024         0.850000024         0.125000000
     0.850000024         0.850000024         0.625000000
     0.150000006         0.050000001         0.125000000
     0.150000006         0.050000001         0.625000000
     0.150000006         0.250000000         0.125000000
     0.150000006         0.250000000         0.625000000
     0.150000006         0.449999988         0.125000000
     0.150000006         0.449999988         0.625000000
     0.150000006         0.649999976         0.125000000
     0.150000006         0.649999976         0.625000000
     0.150000006         0.850000024         0.125000000
     0.150000006         0.850000024         0.625000000
     0.349999994         0.050000001         0.125000000
     0.349999994         0.050000001         0.625000000
     0.349999994         0.250000000         0.125000000
     0.349999994         0.250000000         0.625000000
     0.349999994         0.449999988         0.125000000
     0.349999994         0.449999988         0.625000000
     0.349999994         0.649999976         0.125000000
     0.349999994         0.649999976         0.625000000
     0.349999994         0.850000024         0.125000000
     0.349999994         0.850000024         0.625000000
     0.550000012         0.050000001         0.125000000
     0.550000012         0.050000001         0.625000000
     0.550000012         0.250000000         0.125000000
     0.550000012         0.250000000         0.625000000
     0.550000012         0.449999988         0.125000000
     0.550000012         0.449999988         0.625000000
     0.550000012         0.649999976         0.125000000
     0.550000012         0.649999976         0.625000000
     0.550000012         0.850000024         0.125000000
     0.550000012         0.850000024         0.625000000
     0.750000000         0.050000001         0.125000000
     0.750000000         0.050000001         0.625000000
     0.750000000         0.250000000         0.125000000
     0.750000000         0.250000000         0.625000000
     0.750000000         0.449999988         0.125000000
     0.750000000         0.449999988         0.625000000
     0.750000000         0.649999976         0.125000000
     0.750000000         0.649999976         0.625000000
     0.750000000         0.850000024         0.125000000
     0.750000000         0.850000024         0.625000000
     0.949999988         0.050000001         0.625000000
     0.949999988         0.250000000         0.125000000
     0.949999988         0.250000000         0.625000000
     0.949999988         0.449999988         0.125000000
     0.949999988         0.449999988         0.625000000
     0.949999988         0.649999976         0.125000000
     0.949999988         0.649999976         0.625000000
     0.949999988         0.850000024         0.125000000
     0.949999988         0.850000024         0.625000000
     0.150000006         0.150000006         0.125000000
     0.150000006         0.150000006         0.625000000
     0.150000006         0.349999994         0.125000000
     0.150000006         0.550000012         0.125000000
     0.150000006         0.550000012         0.625000000
     0.150000006         0.750000000         0.125000000
     0.150000006         0.750000000         0.625000000
     0.150000006         0.949999988         0.125000000
     0.150000006         0.949999988         0.625000000
     0.349999994         0.150000006         0.125000000
     0.349999994         0.150000006         0.625000000
     0.349999994         0.349999994         0.125000000
     0.349999994         0.349999994         0.625000000
     0.349999994         0.550000012         0.125000000
     0.349999994         0.550000012         0.625000000
     0.349999994         0.750000000         0.125000000
     0.349999994         0.750000000         0.625000000
     0.349999994         0.949999988         0.125000000
     0.349999994         0.949999988         0.625000000
     0.550000012         0.150000006         0.125000000
     0.550000012         0.150000006         0.625000000
     0.550000012         0.349999994         0.125000000
     0.550000012         0.349999994         0.625000000
     0.550000012         0.550000012         0.125000000
     0.550000012         0.550000012         0.625000000
     0.550000012         0.750000000         0.125000000
     0.550000012         0.750000000         0.625000000
     0.550000012         0.949999988         0.125000000
     0.550000012         0.949999988         0.625000000
     0.750000000         0.150000006         0.125000000
     0.750000000         0.150000006         0.625000000
     0.750000000         0.349999994         0.125000000
     0.750000000         0.349999994         0.625000000
     0.750000000         0.550000012         0.125000000
     0.750000000         0.550000012         0.625000000
     0.750000000         0.750000000         0.125000000
     0.750000000         0.750000000         0.625000000
     0.750000000         0.949999988         0.125000000
     0.750000000         0.949999988         0.625000000
     0.949999988         0.150000006         0.125000000
     0.949999988         0.150000006         0.625000000
     0.949999988         0.349999994         0.125000000
     0.949999988         0.349999994         0.625000000
     0.949999988         0.550000012         0.125000000
     0.949999988         0.550000012         0.625000000
     0.949999988         0.750000000         0.125000000
     0.949999988         0.750000000         0.625000000
     0.949999988         0.949999988         0.125000000
     0.949999988         0.949999988         0.625000000
     0.150000006         0.150000006         0.375000000
     0.150000006         0.150000006         0.875000000
     0.150000006         0.349999994         0.375000000
     0.150000006         0.349999994         0.875000000
     0.150000006         0.550000012         0.375000000
     0.150000006         0.750000000         0.375000000
     0.150000006         0.750000000         0.875000000
     0.150000006         0.949999988         0.375000000
     0.150000006         0.949999988         0.875000000
     0.349999994         0.150000006         0.375000000
     0.349999994         0.150000006         0.875000000
     0.349999994         0.349999994         0.375000000
     0.349999994         0.349999994         0.875000000
     0.349999994         0.550000012         0.375000000
     0.349999994         0.550000012         0.875000000
     0.349999994         0.750000000         0.375000000
     0.349999994         0.750000000         0.875000000
     0.349999994         0.949999988         0.375000000
     0.349999994         0.949999988         0.875000000
     0.550000012         0.150000006         0.375000000
     0.550000012         0.150000006         0.875000000
     0.550000012         0.349999994         0.375000000
     0.550000012         0.349999994         0.875000000
     0.550000012         0.550000012         0.375000000
     0.550000012         0.550000012         0.875000000
     0.550000012         0.750000000         0.375000000
     0.550000012         0.750000000         0.875000000
     0.550000012         0.949999988         0.875000000
     0.750000000         0.150000006         0.375000000
     0.750000000         0.150000006         0.875000000
     0.750000000         0.349999994         0.375000000
     0.750000000         0.349999994         0.875000000
     0.750000000         0.550000012         0.375000000
     0.750000000         0.550000012         0.875000000
     0.750000000         0.750000000         0.375000000
     0.750000000         0.750000000         0.875000000
     0.750000000         0.949999988         0.375000000
     0.750000000         0.949999988         0.875000000
     0.949999988         0.150000006         0.375000000
     0.949999988         0.150000006         0.875000000
     0.949999988         0.349999994         0.375000000
     0.949999988         0.349999994         0.875000000
     0.949999988         0.550000012         0.375000000
     0.949999988         0.550000012         0.875000000
     0.949999988         0.750000000         0.375000000
     0.949999988         0.750000000         0.875000000
     0.949999988         0.949999988         0.375000000
     0.949999988         0.949999988         0.875000000
     0.150000006         0.050000001         0.375000000
     0.150000006         0.050000001         0.875000000
     0.150000006         0.250000000         0.375000000
     0.150000006         0.250000000         0.875000000
     0.150000006         0.449999988         0.375000000
     0.150000006         0.449999988         0.875000000
     0.150000006         0.649999976         0.375000000
     0.150000006         0.649999976         0.875000000
     0.150000006         0.850000024         0.375000000
     0.150000006         0.850000024         0.875000000
     0.349999994         0.050000001         0.375000000
     0.349999994         0.050000001         0.875000000
     0.349999994         0.250000000         0.375000000
     0.349999994         0.250000000         0.875000000
     0.349999994         0.449999988         0.375000000
     0.349999994         0.449999988         0.875000000
     0.349999994         0.649999976         0.375000000
     0.349999994         0.649999976         0.875000000
     0.349999994         0.850000024         0.375000000
     0.349999994         0.850000024         0.875000000
     0.550000012         0.050000001         0.375000000
     0.550000012         0.050000001         0.875000000
     0.550000012         0.250000000         0.375000000
     0.550000012         0.250000000         0.875000000
     0.550000012         0.449999988         0.375000000
     0.550000012         0.449999988         0.875000000
     0.550000012         0.649999976         0.375000000
     0.550000012         0.649999976         0.875000000
     0.550000012         0.850000024         0.375000000
     0.550000012         0.850000024         0.875000000
     0.750000000         0.050000001         0.375000000
     0.750000000         0.050000001         0.875000000
     0.750000000         0.250000000         0.375000000
     0.750000000         0.250000000         0.875000000
     0.750000000         0.449999988         0.375000000
     0.750000000         0.449999988         0.875000000
     0.750000000         0.649999976         0.375000000
     0.750000000         0.649999976         0.875000000
     0.750000000         0.850000024         0.375000000
     0.750000000         0.850000024         0.875000000
     0.949999988         0.050000001         0.375000000
     0.949999988         0.050000001         0.875000000
     0.949999988         0.250000000         0.375000000
     0.949999988         0.250000000         0.875000000
     0.949999988         0.449999988         0.375000000
     0.949999988         0.449999988         0.875000000
     0.949999988         0.649999976         0.375000000
     0.949999988         0.649999976         0.875000000
     0.949999988         0.850000024         0.375000000
     0.949999988         0.850000024         0.875000000
     0.000000000         0.000000000         0.000000000
     0.000000000         0.000000000         0.500000000
     0.000000000         0.200000003         0.000000000
     0.000000000         0.200000003         0.500000000
     0.000000000         0.400000006         0.000000000
     0.000000000         0.400000006         0.500000000
     0.000000000         0.600000024         0.000000000
     0.000000000         0.600000024         0.500000000
     0.000000000         0.800000012         0.000000000
     0.000000000         0.800000012         0.500000000
     0.200000003         0.000000000         0.000000000
     0.200000003         0.000000000         0.500000000
     0.200000003         0.200000003         0.000000000
     0.200000003         0.200000003         0.500000000
     0.200000003         0.400000006         0.000000000
     0.200000003         0.400000006         0.500000000
     0.200000003         0.600000024         0.000000000
     0.200000003         0.600000024         0.500000000
     0.200000003         0.800000012         0.000000000
     0.200000003         0.800000012         0.500000000
     0.400000006         0.000000000         0.000000000
     0.400000006         0.000000000         0.500000000
     0.400000006         0.200000003         0.000000000
     0.400000006         0.200000003         0.500000000
     0.400000006         0.400000006         0.000000000
     0.400000006         0.400000006         0.500000000
     0.400000006         0.600000024         0.000000000
     0.400000006         0.600000024         0.500000000
     0.400000006         0.800000012         0.000000000
     0.400000006         0.800000012         0.500000000
     0.600000024         0.000000000         0.000000000
     0.600000024         0.000000000         0.500000000
     0.600000024         0.200000003         0.000000000
     0.600000024         0.200000003         0.500000000
     0.600000024         0.400000006         0.000000000
     0.600000024         0.400000006         0.500000000
     0.600000024         0.600000024         0.000000000
     0.600000024         0.600000024         0.500000000
     0.600000024         0.800000012         0.000000000
     0.600000024         0.800000012         0.500000000
     0.800000012         0.000000000         0.000000000
     0.800000012         0.000000000         0.500000000
     0.800000012         0.200000003         0.000000000
     0.800000012         0.200000003         0.500000000
     0.800000012         0.400000006         0.000000000
     0.800000012         0.400000006         0.500000000
     0.800000012         0.600000024         0.000000000
     0.800000012         0.600000024         0.500000000
     0.800000012         0.800000012         0.000000000
     0.800000012         0.800000012         0.500000000
     0.000000000         0.100000001         0.250000000
     0.000000000         0.100000001         0.750000000
     0.000000000         0.300000012         0.250000000
     0.000000000         0.300000012         0.750000000
     0.000000000         0.500000000         0.250000000
     0.000000000         0.500000000         0.750000000
     0.000000000         0.699999988         0.250000000
     0.000000000         0.699999988         0.750000000
     0.000000000         0.899999976         0.250000000
     0.000000000         0.899999976         0.750000000
     0.200000003         0.100000001         0.250000000
     0.200000003         0.100000001         0.750000000
     0.200000003         0.300000012         0.250000000
     0.200000003         0.300000012         0.750000000
     0.200000003         0.500000000         0.250000000
     0.200000003         0.500000000         0.750000000
     0.200000003         0.699999988         0.250000000
     0.200000003         0.699999988         0.750000000
     0.200000003         0.899999976         0.250000000
     0.200000003         0.899999976         0.750000000
     0.400000006         0.100000001         0.250000000
     0.400000006         0.100000001         0.750000000
     0.400000006         0.300000012         0.250000000
     0.400000006         0.300000012         0.750000000
     0.400000006         0.500000000         0.250000000
     0.400000006         0.500000000         0.750000000
     0.400000006         0.699999988         0.250000000
     0.400000006         0.699999988         0.750000000
     0.400000006         0.899999976         0.250000000
     0.400000006         0.899999976         0.750000000
     0.600000024         0.100000001         0.250000000
     0.600000024         0.100000001         0.750000000
     0.600000024         0.300000012         0.250000000
     0.600000024         0.300000012         0.750000000
     0.600000024         0.500000000         0.250000000
     0.600000024         0.500000000         0.750000000
     0.600000024         0.699999988         0.250000000
     0.600000024         0.699999988         0.750000000
     0.600000024         0.899999976         0.250000000
     0.600000024         0.899999976         0.750000000
     0.800000012         0.100000001         0.250000000
     0.800000012         0.100000001         0.750000000
     0.800000012         0.300000012         0.250000000
     0.800000012         0.300000012         0.750000000
     0.800000012         0.500000000         0.250000000
     0.800000012         0.500000000         0.750000000
     0.800000012         0.699999988         0.250000000
     0.800000012         0.699999988         0.750000000
     0.800000012         0.899999976         0.250000000
     0.800000012         0.899999976         0.750000000
     0.100000001         0.000000000         0.250000000
     0.100000001         0.000000000         0.750000000
     0.100000001         0.200000003         0.250000000
     0.100000001         0.200000003         0.750000000
     0.100000001         0.400000006         0.250000000
     0.100000001         0.400000006         0.750000000
     0.100000001         0.600000024         0.250000000
     0.100000001         0.600000024         0.750000000
     0.100000001         0.800000012         0.250000000
     0.100000001         0.800000012         0.750000000
     0.300000012         0.000000000         0.250000000
     0.300000012         0.000000000         0.750000000
     0.300000012         0.200000003         0.250000000
     0.300000012         0.200000003         0.750000000
     0.300000012         0.400000006         0.250000000
     0.300000012         0.400000006         0.750000000
     0.300000012         0.600000024         0.250000000
     0.300000012         0.600000024         0.750000000
     0.300000012         0.800000012         0.250000000
     0.300000012         0.800000012         0.750000000
     0.500000000         0.000000000         0.250000000
     0.500000000         0.000000000         0.750000000
     0.500000000         0.200000003         0.250000000
     0.500000000         0.200000003         0.750000000
     0.500000000         0.400000006         0.250000000
     0.500000000         0.400000006         0.750000000
     0.500000000         0.600000024         0.250000000
     0.500000000         0.600000024         0.750000000
     0.500000000         0.800000012         0.250000000
     0.500000000         0.800000012         0.750000000
     0.699999988         0.000000000         0.250000000
     0.699999988         0.000000000         0.750000000