Cu8 Se4
1.0
       17.4060535431         0.0000000000         0.0000000000
        0.0000000000        17.4060535431         0.0000000000
        0.0000000000         0.0000000000        17.4060535431
   Cu   Se
  216  108
Direct
     0.083333336         0.083333336         0.250000000
     0.083333336         0.083333336         0.583333313
     0.083333336         0.083333336         0.916666687
     0.083333336         0.416666657         0.250000000
     0.083333336         0.416666657         0.583333313
     0.083333336         0.416666657         0.916666687
     0.083333336         0.750000000         0.250000000
     0.083333336         0.750000000         0.583333313
     0.083333336         0.750000000         0.916666687
     0.416666657         0.083333336         0.250000000
     0.416666657         0.083333336         0.583333313
     0.416666657         0.083333336         0.916666687
     0.416666657         0.416666657         0.250000000
     0.416666657         0.416666657         0.583333313
     0.416666657         0.416666657         0.916666687
     0.416666657         0.750000000         0.250000000
     0.416666657         0.750000000         0.583333313
     0.416666657         0.750000000         0.916666687
     0.750000000         0.083333336         0.250000000
     0.750000000         0.083333336         0.583333313
     0.750000000         0.083333336         0.916666687
     0.750000000         0.416666657         0.250000000
     0.750000000         0.416666657         0.583333313
     0.750000000         0.416666657         0.916666687
     0.750000000         0.750000000         0.250000000
     0.750000000         0.750000000         0.583333313
     0.750000000         0.750000000         0.916666687
     0.083333336         0.250000000         0.250000000
     0.083333336         0.250000000         0.583333313
     0.083333336         0.250000000         0.916666687
     0.083333336         0.583333313         0.250000000
     0.083333336         0.583333313         0.583333313
     0.083333336         0.583333313         0.916666687
     0.083333336         0.916666687         0.250000000
     0.083333336         0.916666687         0.583333313
     0.083333336         0.916666687         0.916666687
     0.416666657         0.250000000         0.250000000
     0.416666657         0.250000000         0.583333313
     0.416666657         0.250000000         0.916666687
     0.416666657         0.583333313         0.250000000
     0.416666657         0.583333313         0.583333313
     0.416666657         0.583333313         0.916666687
     0.416666657         0.916666687         0.250000000
     0.416666657         0.916666687         0.583333313
     0.416666657         0.916666687         0.916666687
     0.750000000         0.250000000         0.250000000
     0.750000000         0.250000000         0.583333313
     0.750000000         0.250000000         0.916666687
     0.750000000         0.583333313         0.250000000
     0.750000000         0.583333313         0.583333313
     0.750000000         0.583333313         0.916666687
     0.750000000         0.916666687         0.250000000
     0.750000000         0.916666687         0.583333313
     0.750000000         0.916666687         0.916666687
     0.083333336         0.250000000         0.083333336
     0.083333336         0.250000000         0.416666657
     0.083333336         0.250000000         0.750000000
     0.083333336         0.583333313         0.083333336
     0.083333336         0.583333313         0.416666657
     0.083333336         0.583333313         0.750000000
     0.083333336         0.916666687         0.083333336
     0.083333336         0.916666687         0.416666657
     0.083333336         0.916666687         0.750000000
     0.416666657         0.250000000         0.083333336
     0.416666657         0.250000000         0.416666657
     0.416666657         0.250000000         0.750000000
     0.416666657         0.583333313         0.083333336
     0.416666657         0.583333313         0.416666657
     0.416666657         0.583333313         0.750000000
     0.416666657         0.916666687         0.083333336
     0.416666657         0.916666687         0.416666657
     0.416666657         0.916666687         0.750000000
     0.750000000         0.250000000         0.083333336
     0.750000000         0.250000000         0.416666657
     0.750000000         0.250000000         0.750000000
     0.750000000         0.583333313         0.083333336
     0.750000000         0.583333313         0.416666657
     0.750000000         0.583333313         0.750000000
     0.750000000         0.916666687         0.083333336
     0.750000000         0.916666687         0.416666657
     0.750000000         0.916666687         0.750000000
     0.083333336         0.083333336         0.083333336
     0.083333336         0.083333336         0.416666657
     0.083333336         0.083333336         0.750000000
     0.083333336         0.416666657         0.083333336
     0.083333336         0.416666657         0.416666657
     0.083333336         0.416666657         0.750000000
     0.083333336         0.750000000         0.083333336
     0.083333336         0.750000000         0.416666657
     0.083333336         0.750000000         0.750000000
     0.416666657         0.083333336         0.083333336
     0.416666657         0.083333336         0.416666657
     0.416666657         0.083333336         0.750000000
     0.416666657         0.416666657         0.083333336
     0.416666657         0.416666657         0.416666657
     0.416666657         0.416666657         0.750000000
     0.416666657         0.750000000         0.083333336
     0.416666657         0.750000000         0.416666657
     0.416666657         0.750000000         0.750000000
     0.750000000         0.083333336         0.083333336
     0.750000000         0.083333336         0.416666657
     0.750000000         0.083333336         0.750000000
     0.750000000         0.416666657         0.083333336
     0.750000000         0.416666657         0.416666657
     0.750000000         0.416666657         0.750000000
     0.750000000         0.750000000         0.083333336
     0.750000000         0.750000000         0.416666657
     0.750000000         0.750000000         0.750000000
     0.250000000         0.083333336         0.083333336
     0.250000000         0.083333336         0.416666657
     0.250000000         0.083333336         0.750000000
     0.250000000         0.416666657         0.083333336
     0.250000000         0.416666657         0.416666657
     0.250000000         0.416666657         0.750000000
     0.250000000         0.750000000         0.083333336
     0.250000000         0.750000000         0.416666657
     0.250000000         0.750000000         0.750000000
     0.583333313         0.083333336         0.083333336
     0.583333313         0.083333336         0.416666657
     0.583333313         0.083333336         0.750000000
     0.583333313         0.416666657         0.083333336
     0.583333313         0.416666657         0.416666657
     0.583333313         0.416666657         0.750000000
     0.583333313         0.750000000         0.083333336
     0.583333313         0.750000000         0.416666657
     0.583333313         0.750000000         0.750000000
     0.916666687         0.083333336         0.083333336
     0.916666687         0.083333336         0.416666657
     0.916666687         0.083333336         0.750000000
     0.916666687         0.416666657         0.083333336
     0.916666687         0.416666657         0.416666657
     0.916666687         0.416666657         0.750000000
     0.916666687         0.750000000         0.083333336
     0.916666687         0.750000000         0.416666657
     0.916666687         0.750000000         0.750000000
     0.250000000         0.250000000         0.083333336
     0.250000000         0.250000000         0.416666657
     0.250000000         0.250000000         0.750000000
     0.250000000         0.583333313         0.083333336
     0.250000000         0.583333313         0.416666657
     0.250000000         0.583333313         0.750000000
     0.250000000         0.916666687         0.083333336
     0.250000000         0.916666687         0.416666657
     0.250000000         0.916666687         0.750000000
     0.583333313         0.250000000         0.083333336
     0.583333313         0.250000000         0.416666657
     0.583333313         0.250000000         0.750000000
     0.583333313         0.583333313         0.083333336
     0.583333313         0.583333313         0.416666657
     0.583333313         0.583333313         0.750000000
     0.583333313         0.916666687         0.083333336
     0.583333313         0.916666687         0.416666657
     0.583333313         0.916666687         0.750000000
     0.916666687         0.250000000         0.083333336
     0.916666687         0.250000000         0.416666657
     0.916666687         0.250000000         0.750000000
     0.916666687         0.583333313         0.083333336
     0.916666687         0.583333313         0.416666657
     0.916666687         0.583333313         0.750000000
     0.916666687         0.916666687         0.083333336
     0.916666687         0.916666687         0.416666657
     0.916666687         0.916666687         0.750000000
     0.250000000         0.250000000         0.250000000
     0.250000000         0.250000000         0.583333313
     0.250000000         0.250000000         0.916666687
     0.250000000         0.583333313         0.250000000
     0.250000000         0.583333313         0.583333313
     0.250000000         0.583333313         0.916666687
     0.250000000         0.916666687         0.250000000
     0.250000000         0.916666687         0.583333313
     0.250000000         0.916666687         0.916666687
     0.583333313         0.250000000         0.250000000
     0.583333313         0.250000000         0.583333313
     0.583333313         0.250000000         0.916666687
     0.583333313         0.583333313         0.250000000
     0.583333313         0.583333313         0.583333313
     0.583333313         0.583333313         0.916666687
     0.583333313         0.916666687         0.250000000
     0.583333313         0.916666687         0.583333313
     0.583333313         0.916666687         0.916666687
     0.916666687         0.250000000         0.250000000
     0.916666687         0.250000000         0.583333313
     0.916666687         0.250000000         0.916666687
     0.916666687         0.583333313         0.250000000
     0.916666687         0.583333313         0.583333313
     0.916666687         0.583333313         0.916666687
     0.916666687         0.916666687         0.250000000
     0.916666687         0.916666687         0.583333313
     0.916666687         0.916666687         0.916666687
     0.250000000         0.083333336         0.250000000
     0.250000000         0.083333336         0.583333313
     0.250000000         0.083333336         0.916666687
     0.250000000         0.416666657         0.250000000
     0.250000000         0.416666657         0.583333313
     0.250000000         0.416666657         0.916666687
     0.250000000         0.750000000         0.250000000
     0.250000000         0.750000000         0.583333313
     0.250000000         0.750000000         0.916666687
     0.583333313         0.083333336         0.250000000
     0.583333313         0.083333336         0.583333313
     0.583333313         0.083333336         0.916666687
     0.583333313         0.416666657         0.250000000
     0.583333313         0.416666657         0.583333313
     0.583333313         0.416666657         0.916666687
     0.583333313         0.750000000         0.250000000
     0.583333313         0.750000000         0.583333313
     0.583333313         0.750000000         0.916666687
     0.916666687         0.083333336         0.250000000
     0.916666687         0.083333336         0.583333313
     0.916666687         0.083333336         0.916666687
     0.916666687         0.416666657         0.250000000
     0.916666687         0.416666657         0.583333313
     0.916666687         0.416666657         0.916666687
     0.916666687         0.750000000         0.250000000
     0.916666687         0.750000000         0.583333313
     0.916666687         0.750000000         0.916666687
     0.000000000         0.000000000         0.000000000
     0.000000000         0.000000000         0.333333343
     0.000000000         0.000000000         0.666666687
     0.000000000         0.333333343         0.000000000
     0.000000000         0.333333343         0.333333343
     0.000000000         0.333333343         0.666666687
     0.000000000         0.666666687         0.000000000
     0.000000000         0.666666687         0.333333343
     0.000000000         0.666666687         0.666666687
     0.333333343         0.000000000         0.000000000
     0.333333343         0.000000000         0.333333343
     0.333333343         0.000000000         0.666666687
     0.333333343         0.333333343         0.000000000
     0.333333343         0.333333343         0.333333343
     0.333333343         0.333333343         0.666666687
     0.333333343         0.666666687         0.000000000
     0.333333343         0.666666687         0.333333343
     0.333333343         0.666666687         0.666666687
     0.666666687         0.000000000         0.000000000
     0.666666687         0.000000000         0.333333343
     0.666666687         0.000000000         0.666666687
     0.666666687         0.333333343         0.000000000
     0.666666687         0.333333343         0.333333343
     0.666666687         0.333333343         0.666666687
     0.666666687         0.666666687         0.000000000
     0.666666687         0.666666687         0.333333343
     0.666666687         0.666666687         0.666666687
     0.000000000         0.166666672         0.166666672
     0.000000000         0.166666672         0.500000000
     0.000000000         0.166666672         0.833333313
     0.000000000         0.500000000         0.166666672
     0.000000000         0.500000000         0.500000000
     0.000000000         0.500000000         0.833333313
     0.000000000         0.833333313         0.166666672
     0.000000000         0.833333313         0.500000000
     0.000000000         0.833333313         0.833333313
     0.333333343         0.166666672         0.166666672
     0.333333343         0.166666672         0.500000000
     0.333333343         0.166666672         0.833333313
     0.333333343         0.500000000         0.166666672
     0.333333343         0.500000000         0.500000000
     0.333333343         0.500000000         0.833333313
     0.333333343         0.833333313         0.166666672
     0.333333343         0.833333313         0.500000000
     0.333333343         0.833333313         0.833333313
     0.666666687         0.166666672         0.166666672
     0.666666687         0.166666672         0.500000000
     0.666666687         0.166666672         0.833333313
     0.666666687         0.500000000         0.166666672
     0.666666687         0.500000000         0.500000000
     0.666666687         0.500000000         0.833333313
     0.666666687         0.833333313         0.166666672
     0.666666687         0.833333313         0.500000000
     0.666666687         0.833333313         0.833333313
     0.166666672         0.000000000         0.166666672
     0.166666672         0.000000000         0.500000000
     0.166666672         0.000000000         0.833333313
     0.166666672         0.333333343         0.166666672
     0.166666672         0.333333343         0.500000000
     0.166666672         0.333333343         0.833333313
     0.166666672         0.666666687         0.166666672
     0.166666672         0.666666687         0.500000000
     0.166666672         0.666666687         0.833333313
     0.500000000         0.000000000         0.166666672
     0.500000000         0.000000000         0.500000000
     0.500000000         0.000000000         0.833333313
     0.500000000         0.333333343         0.166666672
     0.500000000         0.333333343         0.500000000
     0.500000000         0.333333343         0.833333313
     0.500000000         0.666666687         0.166666672
     0.500000000         0.666666687         0.500000000
     0.500000000         0.666666687         0.833333313
     0.833333313         0.000000000         0.166666672
     0.833333313         0.000000000         0.500000000
     0.833333313         0.000000000         0.833333313
     0.833333313         0.333333343         0.166666672
     0.833333313         0.333333343         0.500000000
     0.833333313         0.333333343         0.833333313
     0.833333313         0.666666687         0.166666672
     0.833333313         0.666666687         0.500000000
     0.833333313         0.666666687         0.833333313
     0.166666672         0.166666672         0.000000000
     0.166666672         0.166666672         0.333333343
     0.166666672         0.166666672         0.666666687
     0.166666672         0.500000000         0.000000000
     0.166666672         0.500000000         0.333333343
     0.166666672         0.500000000         0.666666687
     0.166666672         0.833333313         0.000000000
     0.166666672         0.833333313         0.333333343
     0.166666672         0.833333313         0.666666687
     0.500000000         0.166666672         0.000000000
     0.500000000         0.166666672         0.333333343
     0.500000000         0.166666672         0.666666687
     0.500000000         0.500000000         0.000000000
     0.500000000         0.500000000         0.333333343
     0.500000000         0.500000000         0.666666687
     0.500000000         0.833333313         0.000000000
     0.500000000         0.833333313         0.333333343
     0.500000000         0.833333313         0.666666687
     0.833333313         0.166666672         0.000000000
     0.833333313         0.166666672         0.333333343
     0.833333313         0.166666672         0.666666687
     0.833333313         0.500000000         0.000000000
     0.833333313         0.500000000         0.333333343
     0.833333313         0.500000000         0.666666687
     0.833333313         0.833333313         0.000000000
     0.833333313         0.833333313         0.333333343
     0.833333313         0.833333313         0.666666687

